(set-logic QF_UF)
(declare-fun A0 () Bool)
(declare-fun A1 () Bool)
(declare-fun A2 () Bool)
(declare-fun A3 () Bool)
(declare-fun A4 () Bool)
(declare-fun A5 () Bool)
(declare-fun A6 () Bool)
(declare-fun A7 () Bool)
(declare-fun A8 () Bool)
(declare-fun A9 () Bool)
(declare-fun A10 () Bool)
(declare-fun A11 () Bool)
(declare-fun A12 () Bool)
(declare-fun A13 () Bool)
(declare-fun A14 () Bool)
(declare-fun A15 () Bool)
(declare-fun A16 () Bool)
(declare-fun A17 () Bool)
(declare-fun A18 () Bool)
(declare-fun A19 () Bool)
(declare-fun A20 () Bool)
(declare-fun A21 () Bool)
(declare-fun A23 () Bool)
(declare-fun A24 () Bool)
(assert (let ((.def_0 (and A18 A1))) (let ((.def_1 (not .def_0))) (let ((.def_2 (not A12))) (let ((.def_3 (and .def_2 A10))) (let ((.def_4 (not .def_3))) (let ((.def_5 (or .def_4 .def_1))) (let ((.def_6 (not .def_5))) (let ((.def_7 (not A0))) (let ((.def_8 (or A3 .def_7))) (let ((.def_9 (not A2))) (let ((.def_10 (and A11 .def_9))) (let ((.def_11 (not .def_10))) (let ((.def_12 (and .def_11 .def_8))) (let ((.def_13 (not .def_12))) (let ((.def_14 (and .def_13 .def_6))) (let ((.def_15 (not .def_14))) (let ((.def_16 (and .def_2 A7))) (let ((.def_17 (and A3 .def_7))) (let ((.def_18 (not .def_17))) (let ((.def_19 (and .def_18 .def_16))) (let ((.def_20 (not .def_19))) (let ((.def_21 (not A5))) (let ((.def_22 (and A10 .def_21))) (let ((.def_23 (= .def_9 .def_2))) (let ((.def_24 (not .def_23))) (let ((.def_25 (and .def_24 .def_22))) (let ((.def_26 (and .def_25 .def_20))) (let ((.def_27 (not .def_26))) (let ((.def_28 (or .def_27 .def_15))) (let ((.def_29 (not .def_28))) (let ((.def_30 (not A4))) (let ((.def_31 (or .def_30 A24))) (let ((.def_32 (not A9))) (let ((.def_33 (or .def_32 A10))) (let ((.def_34 (or .def_33 .def_31))) (let ((.def_35 (not .def_34))) (let ((.def_36 (not A13))) (let ((.def_37 (or A12 .def_36))) (let ((.def_38 (not .def_37))) (let ((.def_39 (not A19))) (let ((.def_40 (or A8 .def_39))) (let ((.def_41 (not .def_40))) (let ((.def_42 (or .def_41 .def_38))) (let ((.def_43 (not .def_42))) (let ((.def_44 (= .def_43 .def_35))) (let ((.def_45 (not A1))) (let ((.def_46 (or .def_45 A8))) (let ((.def_47 (not A23))) (let ((.def_48 (or A7 .def_47))) (let ((.def_49 (or .def_48 .def_46))) (let ((.def_50 (not A3))) (let ((.def_51 (or A19 .def_50))) (let ((.def_52 (not .def_51))) (let ((.def_53 (not A11))) (let ((.def_54 (or A2 .def_53))) (let ((.def_55 (or .def_54 .def_52))) (let ((.def_56 (and .def_55 .def_49))) (let ((.def_57 (and .def_56 .def_44))) (let ((.def_58 (or .def_57 .def_29))) (let ((.def_59 (not .def_58))) (let ((.def_60 (not A24))) (let ((.def_61 (or .def_60 A15))) (let ((.def_62 (= A11 A3))) (let ((.def_63 (and .def_62 .def_61))) (let ((.def_64 (not .def_63))) (let ((.def_65 (not A6))) (let ((.def_66 (= .def_65 A4))) (let ((.def_67 (not .def_66))) (let ((.def_68 (or .def_30 A5))) (let ((.def_69 (or .def_68 .def_67))) (let ((.def_70 (and .def_69 .def_64))) (let ((.def_71 (not A15))) (let ((.def_72 (or .def_71 A19))) (let ((.def_73 (not .def_72))) (let ((.def_74 (or A12 .def_53))) (let ((.def_75 (not .def_74))) (let ((.def_76 (= .def_75 .def_73))) (let ((.def_77 (or .def_47 A17))) (let ((.def_78 (not A18))) (let ((.def_79 (and .def_78 A5))) (let ((.def_80 (not .def_79))) (let ((.def_81 (or .def_80 .def_77))) (let ((.def_82 (not .def_81))) (let ((.def_83 (and .def_82 .def_76))) (let ((.def_84 (or .def_83 .def_70))) (let ((.def_85 (not .def_84))) (let ((.def_86 (and .def_78 .def_7))) (let ((.def_87 (and A9 A23))) (let ((.def_88 (not .def_87))) (let ((.def_89 (and .def_88 .def_86))) (let ((.def_90 (not A16))) (let ((.def_91 (or A11 .def_90))) (let ((.def_92 (not .def_91))) (let ((.def_93 (not A10))) (let ((.def_94 (or .def_93 .def_78))) (let ((.def_95 (not .def_94))) (let ((.def_96 (or .def_95 .def_92))) (let ((.def_97 (or .def_96 .def_89))) (let ((.def_98 (not .def_97))) (let ((.def_99 (not A21))) (let ((.def_100 (and .def_99 .def_45))) (let ((.def_101 (= .def_36 A14))) (let ((.def_102 (or .def_101 .def_100))) (let ((.def_103 (not .def_102))) (let ((.def_104 (= A16 A11))) (let ((.def_105 (and A12 A20))) (let ((.def_106 (not .def_105))) (let ((.def_107 (or .def_106 .def_104))) (let ((.def_108 (not .def_107))) (let ((.def_109 (or .def_108 .def_103))) (let ((.def_110 (not .def_109))) (let ((.def_111 (and .def_110 .def_98))) (let ((.def_112 (not .def_111))) (let ((.def_113 (and .def_112 .def_85))) (let ((.def_114 (or .def_113 .def_59))) (let ((.def_115 (not .def_114))) .def_115)))))))))))))))))))))))))))))))))))))))))))))))))))))))))))))))))))))))))))))))))))))))))))))))))))))))))))))))))))))
(check-sat)
